NAME : amz0069.152796_152796.tour
COMMENT : Cost = 152796_152796
COMMENT : Found by LKH-AMZ [Keld Helsgaun] Sun May 11 12:13:54 2025
COMMENT : TW viol.: 0 #: 0
TYPE : TOUR
DIMENSION : 148
TOUR_SECTION
39
74
55
56
78
19
72
21
41
11
47
136
112
109
69
57
100
22
148
119
89
24
133
16
36
27
17
131
107
61
130
60
95
2
111
105
94
3
65
102
25
79
58
144
15
90
98
96
110
142
54
84
66
139
103
18
124
46
86
62
121
137
140
4
85
147
32
31
8
30
143
114
91
88
81
12
71
134
87
35
141
14
75
7
59
13
52
77
64
92
50
37
68
80
38
122
145
6
113
49
93
70
97
9
20
23
53
99
125
115
101
126
48
138
120
34
33
117
123
10
45
104
51
118
1
67
132
116
135
5
40
73
108
129
26
63
128
82
44
127
43
29
28
42
76
146
106
83
-1
EOF
